nNurses = 181;
nHours = 31;
minHours = 3;
maxHours = 20;
maxConsec = 6;
maxPresence = 18;
demand = [40, 42, 46, 49, 49, 50, 46, 50, 48, 47, 42, 45, 44, 48, 44, 45, 47, 47, 49, 50, 47, 43, 44, 47, 48, 50, 45, 48, 47, 44, 40];
